c instance by G2
c solution = 1110001110101
c Known solution cost is 511 
p cnf 13 30
w 18 64 19 26 47 68 31 47 37 22 21 12 99
-1 3 10 0
2 -13 -1 0
9 10 -2 0
4 10 9 0
1 -10 7 0
-8 -9 1 0
-12 -3 -1 0
3 -2 10 0
7 -4 -13 0
5 11 3 0
9 6 1 0
-11 -7 13 0
-3 6 9 0
8 -13 12 0
-6 -2 -13 0
9 -2 -1 0
-9 -4 -11 0
6 -10 -9 0
-7 -11 8 0
10 -6 1 0
-10 -1 -13 0
-8 13 7 0
5 11 12 0
10 2 1 0
7 -13 12 0
-11 -8 -5 0
11 7 -1 0
1 12 2 0
-1 12 -10 0
-12 13 -6 0
